72
125
100	2
99	4
98	2
97	2
96	4
95	2
94	5
93	3
92	3
91	3
90	5
88	2
86	1
85	5
83	4
82	4
81	2
80	4
79	2
78	1
77	4
76	3
75	1
74	1
73	6
72	4
71	2
70	1
69	3
68	2
67	1
66	3
65	1
64	2
63	1
62	4
61	1
60	3
59	2
58	2
57	2
56	3
55	4
54	3
53	3
52	2
51	4
50	2
49	7
48	1
47	1
46	4
45	3
43	3
42	2
41	1
40	1
39	2
38	3
37	3
36	3
35	1
34	3
33	1
32	7
31	4
30	6
29	3
28	3
27	4
26	1
25	3
